GeneratedTests/Random_9/Random_9_6.tsp
NAME: Random_9_6
TYPE: TSP
DIMENSION: 9
EDGE_WEIGHT_TYPE: EUC_2D
NODE_COORD_SECTION
1 14.889162 18.450552
2 9.454652 13.638008
3 8.430735 26.374228
4 26.189142 21.858665
5 10.488689 26.237011
6 2.028495 16.236202
7 3.0062842 10.799124
8 25.822975 16.359571
9 21.488073 26.920856
EOF
