GeneratedTests/Random_9/Random_9_6.txt
NAME: Random_9_6
TYPE: TSP
DIMENSION: 9
EDGE_WEIGHT_TYPE: EUC_2D
NODE_COORD_SECTION
1 17.247044 25.982574
2 7.467291 10.388349
3 10.62865 0.0209679
4 24.764277 18.09424
5 25.581232 23.98928
6 20.595179 22.274818
7 7.395365 6.006686
8 11.598309 4.4612594
9 0.4662956 22.741734
EOF
